c Source: TUDataset AIDS, graph #478
c Original: n=8, m=7
c Augmented: +5 edges, n=9 -> m=12, circuit_rank=4
c Augmented to satisfy Eulerian condition (no parallel edges)
p sp 9
e 4 5
e 1 2
e 6 8
e 1 4
e 6 7
e 4 6
e 1 3
e 1 9
e 2 9
e 3 4
e 5 6
e 7 8
